50
1 0 10
2 0 4
2 1 10
3 0 4
3 1 2
3 2 7
4 0 7
4 1 5
4 2 1
4 3 7
5 0 5
5 1 5
5 2 2
5 3 9
5 4 9
6 0 6
6 1 5
6 2 10
6 3 3
6 4 2
6 5 7
7 0 7
7 1 8
7 2 2
7 3 7
7 4 3
7 5 9
7 6 8
8 0 3
8 1 8
8 2 1
8 3 6
8 4 10
8 5 7
8 6 6
8 7 1
9 0 6
9 1 2
9 2 3
9 3 5
9 4 7
9 5 1
9 6 5
9 7 5
9 8 1
10 0 2
10 1 10
10 2 4
10 3 6
10 4 5
10 5 9
10 6 1
10 7 2
10 8 9
10 9 3
11 0 5
11 1 3
11 2 8
11 3 10
11 4 5
11 5 4
11 6 9
11 7 5
11 8 9
11 9 2
11 10 9
12 0 9
12 1 5
12 2 6
12 3 4
12 4 3
12 5 10
12 6 6
12 7 5
12 8 6
12 9 3
12 10 1
12 11 10
13 0 1
13 1 6
13 2 9
13 3 2
13 4 7
13 5 6
13 6 9
13 7 3
13 8 1
13 9 8
13 10 5
13 11 8
13 12 8
14 0 5
14 1 6
14 2 3
14 3 2
14 4 5
14 5 3
14 6 9
14 7 9
14 8 9
14 9 3
14 10 3
14 11 8
14 12 5
14 13 10
15 0 10
15 1 5
15 2 8
15 3 10
15 4 5
15 5 6
15 6 5
15 7 8
15 8 4
15 9 10
15 10 8
15 11 10
15 12 9
15 13 5
15 14 4
16 0 10
16 1 10
16 2 6
16 3 3
16 4 4
16 5 8
16 6 9
16 7 6
16 8 1
16 9 6
16 10 7
16 11 4
16 12 7
16 13 7
16 14 8
16 15 8
17 0 7
17 1 9
17 2 6
17 3 2
17 4 10
17 5 6
17 6 8
17 7 6
17 8 6
17 9 8
17 10 6
17 11 8
17 12 2
17 13 2
17 14 5
17 15 3
17 16 2
18 0 5
18 1 1
18 2 9
18 3 4
18 4 2
18 5 3
18 6 1
18 7 2
18 8 9
18 9 10
18 10 1
18 11 2
18 12 7
18 13 10
18 14 6
18 15 4
18 16 1
18 17 5
19 0 2
19 1 7
19 2 3
19 3 7
19 4 6
19 5 7
19 6 2
19 7 5
19 8 8
19 9 2
19 10 9
19 11 1
19 12 3
19 13 8
19 14 4
19 15 4
19 16 2
19 17 7
19 18 7
20 0 8
20 1 7
20 2 1
20 3 7
20 4 7
20 5 7
20 6 1
20 7 2
20 8 7
20 9 5
20 10 1
20 11 6
20 12 3
20 13 8
20 14 7
20 15 2
20 16 8
20 17 3
20 18 7
20 19 4
21 0 1
21 1 9
21 2 7
21 3 7
21 4 4
21 5 7
21 6 6
21 7 8
21 8 7
21 9 2
21 10 6
21 11 2
21 12 2
21 13 9
21 14 10
21 15 5
21 16 10
21 17 7
21 18 7
21 19 9
21 20 8
22 0 1
22 1 3
22 2 3
22 3 9
22 4 6
22 5 3
22 6 7
22 7 4
22 8 1
22 9 7
22 10 5
22 11 7
22 12 4
22 13 4
22 14 5
22 15 5
22 16 7
22 17 2
22 18 5
22 19 6
22 20 9
22 21 6
23 0 6
23 1 9
23 2 10
23 3 7
23 4 7
23 5 1
23 6 10
23 7 3
23 8 5
23 9 6
23 10 6
23 11 9
23 12 8
23 13 5
23 14 10
23 15 4
23 16 10
23 17 10
23 18 9
23 19 7
23 20 2
23 21 8
23 22 8
24 0 8
24 1 1
24 2 5
24 3 4
24 4 9
24 5 1
24 6 3
24 7 3
24 8 1
24 9 5
24 10 6
24 11 6
24 12 7
24 13 1
24 14 2
24 15 2
24 16 7
24 17 9
24 18 10
24 19 8
24 20 1
24 21 9
24 22 4
24 23 6
25 0 2
25 1 3
25 2 6
25 3 5
25 4 5
25 5 2
25 6 9
25 7 9
25 8 9
25 9 2
25 10 3
25 11 8
25 12 10
25 13 9
25 14 2
25 15 10
25 16 8
25 17 4
25 18 5
25 19 8
25 20 9
25 21 3
25 22 5
25 23 2
25 24 8
26 0 2
26 1 8
26 2 4
26 3 3
26 4 9
26 5 5
26 6 9
26 7 7
26 8 7
26 9 2
26 10 2
26 11 3
26 12 7
26 13 3
26 14 6
26 15 8
26 16 2
26 17 5
26 18 8
26 19 1
26 20 9
26 21 5
26 22 4
26 23 8
26 24 4
26 25 8
27 0 2
27 1 3
27 2 9
27 3 9
27 4 1
27 5 6
27 6 3
27 7 3
27 8 2
27 9 9
27 10 4
27 11 6
27 12 6
27 13 8
27 14 4
27 15 3
27 16 3
27 17 5
27 18 8
27 19 1
27 20 6
27 21 7
27 22 2
27 23 2
27 24 6
27 25 7
27 26 2
28 0 3
28 1 5
28 2 3
28 3 10
28 4 8
28 5 6
28 6 4
28 7 4
28 8 10
28 9 1
28 10 1
28 11 1
28 12 6
28 13 4
28 14 2
28 15 10
28 16 4
28 17 7
28 18 1
28 19 10
28 20 2
28 21 8
28 22 8
28 23 8
28 24 9
28 25 8
28 26 6
28 27 9
29 0 2
29 1 4
29 2 3
29 3 8
29 4 9
29 5 6
29 6 10
29 7 1
29 8 9
29 9 9
29 10 9
29 11 9
29 12 2
29 13 10
29 14 2
29 15 2
29 16 2
29 17 8
29 18 6
29 19 7
29 20 8
29 21 5
29 22 8
29 23 9
29 24 3
29 25 9
29 26 10
29 27 9
29 28 2
30 0 6
30 1 4
30 2 5
30 3 9
30 4 6
30 5 2
30 6 4
30 7 7
30 8 7
30 9 4
30 10 2
30 11 5
30 12 2
30 13 5
30 14 1
30 15 4
30 16 10
30 17 5
30 18 8
30 19 9
30 20 10
30 21 1
30 22 2
30 23 6
30 24 4
30 25 5
30 26 9
30 27 7
30 28 5
30 29 8
31 0 2
31 1 7
31 2 2
31 3 10
31 4 5
31 5 6
31 6 2
31 7 6
31 8 5
31 9 2
31 10 10
31 11 1
31 12 7
31 13 6
31 14 5
31 15 7
31 16 6
31 17 7
31 18 6
31 19 7
31 20 1
31 21 10
31 22 8
31 23 6
31 24 2
31 25 8
31 26 6
31 27 6
31 28 5
31 29 6
31 30 1
32 0 1
32 1 3
32 2 7
32 3 6
32 4 6
32 5 9
32 6 2
32 7 3
32 8 10
32 9 2
32 10 4
32 11 7
32 12 7
32 13 5
32 14 2
32 15 9
32 16 2
32 17 10
32 18 8
32 19 9
32 20 5
32 21 2
32 22 9
32 23 2
32 24 5
32 25 2
32 26 8
32 27 5
32 28 5
32 29 3
32 30 6
32 31 9
33 0 4
33 1 7
33 2 7
33 3 2
33 4 3
33 5 6
33 6 8
33 7 2
33 8 1
33 9 9
33 10 6
33 11 6
33 12 4
33 13 2
33 14 7
33 15 9
33 16 2
33 17 6
33 18 7
33 19 9
33 20 8
33 21 3
33 22 1
33 23 9
33 24 7
33 25 5
33 26 3
33 27 1
33 28 10
33 29 3
33 30 10
33 31 5
33 32 1
34 0 4
34 1 4
34 2 7
34 3 3
34 4 9
34 5 3
34 6 5
34 7 2
34 8 8
34 9 1
34 10 10
34 11 3
34 12 8
34 13 2
34 14 1
34 15 9
34 16 6
34 17 2
34 18 2
34 19 4
34 20 1
34 21 1
34 22 4
34 23 5
34 24 7
34 25 9
34 26 4
34 27 1
34 28 6
34 29 6
34 30 1
34 31 10
34 32 8
34 33 5
35 0 4
35 1 7
35 2 10
35 3 8
35 4 6
35 5 9
35 6 9
35 7 6
35 8 6
35 9 10
35 10 6
35 11 2
35 12 5
35 13 9
35 14 8
35 15 6
35 16 8
35 17 8
35 18 4
35 19 5
35 20 1
35 21 6
35 22 4
35 23 4
35 24 7
35 25 8
35 26 4
35 27 6
35 28 10
35 29 8
35 30 8
35 31 1
35 32 5
35 33 4
35 34 10
36 0 2
36 1 9
36 2 2
36 3 10
36 4 5
36 5 5
36 6 5
36 7 2
36 8 5
36 9 7
36 10 2
36 11 6
36 12 9
36 13 3
36 14 4
36 15 3
36 16 5
36 17 8
36 18 10
36 19 3
36 20 6
36 21 2
36 22 1
36 23 9
36 24 5
36 25 8
36 26 3
36 27 5
36 28 8
36 29 7
36 30 8
36 31 8
36 32 2
36 33 8
36 34 1
36 35 5
37 0 4
37 1 10
37 2 6
37 3 6
37 4 4
37 5 7
37 6 5
37 7 10
37 8 10
37 9 6
37 10 3
37 11 6
37 12 3
37 13 8
37 14 7
37 15 4
37 16 2
37 17 3
37 18 8
37 19 2
37 20 10
37 21 3
37 22 2
37 23 1
37 24 3
37 25 5
37 26 4
37 27 3
37 28 1
37 29 10
37 30 1
37 31 3
37 32 3
37 33 7
37 34 10
37 35 5
37 36 10
38 0 8
38 1 7
38 2 3
38 3 7
38 4 8
38 5 9
38 6 7
38 7 4
38 8 3
38 9 8
38 10 2
38 11 3
38 12 9
38 13 7
38 14 1
38 15 10
38 16 2
38 17 7
38 18 1
38 19 8
38 20 6
38 21 5
38 22 6
38 23 1
38 24 4
38 25 1
38 26 9
38 27 4
38 28 10
38 29 10
38 30 10
38 31 8
38 32 6
38 33 8
38 34 9
38 35 5
38 36 4
38 37 3
39 0 8
39 1 2
39 2 1
39 3 4
39 4 2
39 5 2
39 6 10
39 7 10
39 8 2
39 9 4
39 10 4
39 11 10
39 12 8
39 13 5
39 14 3
39 15 4
39 16 7
39 17 5
39 18 8
39 19 4
39 20 8
39 21 10
39 22 6
39 23 7
39 24 8
39 25 2
39 26 9
39 27 1
39 28 8
39 29 2
39 30 5
39 31 9
39 32 1
39 33 3
39 34 10
39 35 3
39 36 8
39 37 3
39 38 10
40 0 8
40 1 7
40 2 9
40 3 2
40 4 8
40 5 5
40 6 7
40 7 9
40 8 5
40 9 9
40 10 2
40 11 2
40 12 9
40 13 2
40 14 5
40 15 7
40 16 7
40 17 5
40 18 3
40 19 3
40 20 10
40 21 7
40 22 6
40 23 7
40 24 5
40 25 3
40 26 10
40 27 3
40 28 3
40 29 7
40 30 7
40 31 2
40 32 4
40 33 1
40 34 3
40 35 2
40 36 10
40 37 3
40 38 6
40 39 1
41 0 6
41 1 9
41 2 6
41 3 2
41 4 3
41 5 10
41 6 2
41 7 6
41 8 10
41 9 4
41 10 2
41 11 7
41 12 5
41 13 7
41 14 4
41 15 2
41 16 8
41 17 6
41 18 4
41 19 9
41 20 8
41 21 1
41 22 9
41 23 10
41 24 8
41 25 6
41 26 9
41 27 1
41 28 4
41 29 1
41 30 4
41 31 6
41 32 2
41 33 7
41 34 1
41 35 2
41 36 8
41 37 7
41 38 10
41 39 2
41 40 10
42 0 6
42 1 8
42 2 5
42 3 9
42 4 4
42 5 10
42 6 10
42 7 8
42 8 9
42 9 2
42 10 2
42 11 6
42 12 3
42 13 7
42 14 6
42 15 1
42 16 7
42 17 8
42 18 7
42 19 7
42 20 1
42 21 9
42 22 3
42 23 5
42 24 5
42 25 2
42 26 4
42 27 3
42 28 2
42 29 1
42 30 9
42 31 6
42 32 4
42 33 2
42 34 3
42 35 9
42 36 6
42 37 8
42 38 8
42 39 5
42 40 1
42 41 10
43 0 9
43 1 2
43 2 10
43 3 10
43 4 1
43 5 7
43 6 8
43 7 6
43 8 9
43 9 1
43 10 6
43 11 7
43 12 5
43 13 10
43 14 4
43 15 6
43 16 6
43 17 10
43 18 9
43 19 8
43 20 6
43 21 3
43 22 8
43 23 5
43 24 9
43 25 10
43 26 7
43 27 5
43 28 10
43 29 7
43 30 9
43 31 4
43 32 1
43 33 5
43 34 8
43 35 8
43 36 1
43 37 3
43 38 9
43 39 5
43 40 1
43 41 7
43 42 7
44 0 8
44 1 8
44 2 5
44 3 7
44 4 9
44 5 8
44 6 6
44 7 3
44 8 3
44 9 8
44 10 4
44 11 10
44 12 8
44 13 1
44 14 4
44 15 6
44 16 6
44 17 5
44 18 1
44 19 7
44 20 8
44 21 9
44 22 5
44 23 4
44 24 3
44 25 1
44 26 3
44 27 6
44 28 9
44 29 10
44 30 6
44 31 3
44 32 1
44 33 3
44 34 3
44 35 5
44 36 4
44 37 7
44 38 8
44 39 2
44 40 9
44 41 1
44 42 5
44 43 5
45 0 9
45 1 8
45 2 7
45 3 10
45 4 8
45 5 5
45 6 2
45 7 3
45 8 7
45 9 7
45 10 5
45 11 2
45 12 4
45 13 9
45 14 2
45 15 9
45 16 5
45 17 6
45 18 1
45 19 4
45 20 3
45 21 8
45 22 7
45 23 6
45 24 4
45 25 2
45 26 8
45 27 7
45 28 8
45 29 4
45 30 8
45 31 9
45 32 6
45 33 8
45 34 6
45 35 9
45 36 5
45 37 5
45 38 8
45 39 4
45 40 10
45 41 7
45 42 10
45 43 7
45 44 9
46 0 7
46 1 6
46 2 2
46 3 3
46 4 7
46 5 1
46 6 1
46 7 9
46 8 4
46 9 1
46 10 8
46 11 7
46 12 1
46 13 4
46 14 4
46 15 10
46 16 8
46 17 5
46 18 10
46 19 8
46 20 6
46 21 6
46 22 5
46 23 8
46 24 4
46 25 5
46 26 6
46 27 4
46 28 1
46 29 5
46 30 9
46 31 4
46 32 3
46 33 4
46 34 10
46 35 4
46 36 3
46 37 4
46 38 5
46 39 3
46 40 10
46 41 9
46 42 2
46 43 8
46 44 10
46 45 10
47 0 4
47 1 10
47 2 3
47 3 4
47 4 3
47 5 7
47 6 5
47 7 9
47 8 7
47 9 6
47 10 1
47 11 4
47 12 2
47 13 10
47 14 9
47 15 3
47 16 5
47 17 1
47 18 4
47 19 4
47 20 3
47 21 6
47 22 4
47 23 3
47 24 1
47 25 4
47 26 5
47 27 3
47 28 5
47 29 5
47 30 7
47 31 2
47 32 1
47 33 1
47 34 8
47 35 10
47 36 4
47 37 1
47 38 4
47 39 2
47 40 1
47 41 3
47 42 7
47 43 7
47 44 6
47 45 5
47 46 9
48 0 5
48 1 6
48 2 6
48 3 10
48 4 10
48 5 8
48 6 1
48 7 7
48 8 7
48 9 6
48 10 4
48 11 2
48 12 5
48 13 9
48 14 10
48 15 5
48 16 10
48 17 10
48 18 10
48 19 3
48 20 2
48 21 6
48 22 1
48 23 5
48 24 10
48 25 8
48 26 8
48 27 9
48 28 10
48 29 4
48 30 7
48 31 3
48 32 2
48 33 1
48 34 1
48 35 2
48 36 1
48 37 4
48 38 5
48 39 5
48 40 10
48 41 10
48 42 3
48 43 5
48 44 2
48 45 10
48 46 10
48 47 2
49 0 5
49 1 10
49 2 7
49 3 3
49 4 6
49 5 10
49 6 1
49 7 9
49 8 7
49 9 4
49 10 3
49 11 7
49 12 10
49 13 1
49 14 8
49 15 2
49 16 9
49 17 6
49 18 2
49 19 10
49 20 8
49 21 7
49 22 3
49 23 10
49 24 10
49 25 8
49 26 3
49 27 1
49 28 8
49 29 4
49 30 2
49 31 7
49 32 10
49 33 8
49 34 7
49 35 1
49 36 6
49 37 9
49 38 5
49 39 5
49 40 7
49 41 9
49 42 3
49 43 5
49 44 4
49 45 1
49 46 2
49 47 6
49 48 8
